Maximize
F - f1 - f2

Subject to
F - 8y5 - 8y26 - 2y31 - 4y123 - 8y170 - 4y221 - 8y232 - 8y292 - 2y216 - 2y43 - 4y265 - 6y10 - 8y290 - 2y117 - 4y119 - 4y16 - 6y291 - 4y204 - 2y32 - 2y146 = 0
f1 - 0.007218s5 - 0.007218s26 - 0.007218s31 - 0.007218s123 - 0.007218s170 - 0.007218s221 - 0.007218s232 - 0.007218s292 - 0.007218s216 - 0.007218s43 - 0.007218s265 - 0.007218s10 - 0.007218s290 - 0.007218s117 - 0.007218s119 - 0.007218s16 - 0.007218s291 - 0.007218s204 - 0.007218s32 - 0.007218s146  = 0
f2 - 1.96y5 - 2.51y26 - 2.27y31 - 2.86y123 - 2.37y170 - 1.94y221 - 2.87y232 - 3.10y292 - 1.45y216 - 2.43y43 - 2.10y265 - 2.16y10 - 2.29y290 - 2.16y117 - 2.40y119 - 1.39y16 - 1.96y291 - 2.14y204 - 2.31y32 - 0.83y146 = 0

x100x26x1 + x100x221x1 + x100x216x1 + x100x43x1 + x100x265x1 + x100x290x1 + x100x119x1 + x100x16x1 + x100x204x1 
<= 1
x203x26x1 + x203x221x1 + x203x216x1 + x203x43x1 + x203x265x1 + x203x290x1 + x203x119x1 + x203x16x1 + x203x204x1 
<= 2
x138x26x1 + x138x221x1 + x138x216x1 + x138x43x1 + x138x265x1 + x138x290x1 + x138x119x1 + x138x16x1 + x138x204x1 
<= 1
x94x26x1 + x94x221x1 + x94x216x1 + x94x43x1 + x94x265x1 + x94x290x1 + x94x119x1 + x94x16x1 + x94x204x1 
<= 2

x118x5x2 + x118x26x2 + x118x31x2 + x118x170x2 + x118x216x2 + x118x265x2 + x118x10x2 + x118x117x2 + x118x291x2 + x118x32x2 
<= 1
x100x5x2 + x100x26x2 + x100x31x2 + x100x123x2 + x100x170x2 + x100x232x2 + x100x292x2 + x100x216x2 + x100x265x2 + x100x10x2 + x100x117x2 + x100x291x2 + x100x32x2 
<= 1
x14x5x2 + x14x26x2 + x14x216x2 + x14x265x2 + x14x10x2 + x14x117x2 + x14x291x2 + x14x32x2 
<= 1
x243x32x2 
<= 1
x4x5x2 + x4x26x2 + x4x31x2 + x4x123x2 + x4x170x2 + x4x232x2 + x4x292x2 + x4x216x2 + x4x265x2 + x4x10x2 + x4x117x2 + x4x291x2 + x4x32x2 
<= 1
x239x5x2 + x239x26x2 + x239x31x2 + x239x123x2 + x239x170x2 + x239x232x2 + x239x292x2 + x239x216x2 + x239x265x2 + x239x10x2 + x239x117x2 + x239x291x2 + x239x32x2 
<= 2
x118x31x3 + x118x43x3 + x118x10x3 + x118x117x3 + x118x146x3 
<= 1
x14x43x3 + x14x10x3 + x14x117x3 + x14x146x3 
<= 1
x168x31x3 + x168x43x3 + x168x10x3 + x168x117x3 + x168x146x3 
<= 2
x138x43x3 + x138x10x3 + x138x117x3 + x138x146x3 
<= 1
x113x146x3 
<= 1
x217x146x3 
<= 1
x251x31x3 + x251x123x3 + x251x43x3 + x251x10x3 + x251x117x3 + x251x146x3 
<= 2

x118x5x2 + x100x5x2 + x14x5x2 + x4x5x2 + x239x5x2 
- x5x0x2
- x5x117x2 - x5x291x2 - x5x32x2 
= 0


x100x26x1 + x203x26x1 + x138x26x1 + x94x26x1 
- x26x0x1
- x26x43x1 - x26x265x1 - x26x290x1 - x26x119x1 - x26x204x1 
= 0
x118x26x2 + x100x26x2 + x14x26x2 + x4x26x2 + x239x26x2 
- x26x0x2
- x26x265x2 - x26x10x2 - x26x117x2 - x26x291x2 - x26x32x2 
= 0



x118x31x2 + x100x31x2 + x4x31x2 + x239x31x2 
- x31x0x2
- x31x117x2 - x31x291x2 - x31x32x2 
= 0
x118x31x3 + x168x31x3 + x251x31x3 
- x31x0x3
- x31x117x3 - x31x146x3 
= 0


x100x123x2 + x4x123x2 + x239x123x2 
- x123x0x2
- x123x32x2 
= 0
x251x123x3 
- x123x0x3
- x123x146x3 
= 0


x118x170x2 + x100x170x2 + x4x170x2 + x239x170x2 
- x170x0x2
- x170x117x2 - x170x291x2 - x170x32x2 
= 0


x100x221x1 + x203x221x1 + x138x221x1 + x94x221x1 
- x221x0x1

= 0




x100x232x2 + x4x232x2 + x239x232x2 
- x232x0x2
- x232x32x2 
= 0



x100x292x2 + x4x292x2 + x239x292x2 
- x292x0x2
- x292x32x2 
= 0


x100x216x1 + x203x216x1 + x138x216x1 + x94x216x1 
- x216x0x1
- x216x16x1 - x216x204x1 
= 0
x118x216x2 + x100x216x2 + x14x216x2 + x4x216x2 + x239x216x2 
- x216x0x2
- x216x291x2 - x216x32x2 
= 0


x100x43x1 + x203x43x1 + x138x43x1 + x94x43x1 + x26x43x1 
- x43x0x1
- x43x290x1 - x43x119x1 - x43x204x1 
= 0

x118x43x3 + x14x43x3 + x168x43x3 + x138x43x3 + x251x43x3 
- x43x0x3
- x43x117x3 - x43x146x3 
= 0

x100x265x1 + x203x265x1 + x138x265x1 + x94x265x1 + x26x265x1 
- x265x0x1
- x265x290x1 - x265x119x1 - x265x204x1 
= 0
x118x265x2 + x100x265x2 + x14x265x2 + x4x265x2 + x239x265x2 + x26x265x2 
- x265x0x2
- x265x10x2 - x265x117x2 - x265x291x2 - x265x32x2 
= 0



x118x10x2 + x100x10x2 + x14x10x2 + x4x10x2 + x239x10x2 + x26x10x2 + x265x10x2 
- x10x0x2
- x10x117x2 - x10x291x2 - x10x32x2 
= 0
x118x10x3 + x14x10x3 + x168x10x3 + x138x10x3 + x251x10x3 
- x10x0x3
- x10x117x3 - x10x146x3 
= 0

x100x290x1 + x203x290x1 + x138x290x1 + x94x290x1 + x26x290x1 + x43x290x1 + x265x290x1 
- x290x0x1
- x290x119x1 - x290x204x1 
= 0




x118x117x2 + x100x117x2 + x14x117x2 + x4x117x2 + x239x117x2 + x5x117x2 + x26x117x2 + x31x117x2 + x170x117x2 + x265x117x2 + x10x117x2 
- x117x0x2
- x117x32x2 
= 0
x118x117x3 + x14x117x3 + x168x117x3 + x138x117x3 + x251x117x3 + x31x117x3 + x43x117x3 + x10x117x3 
- x117x0x3

= 0

x100x119x1 + x203x119x1 + x138x119x1 + x94x119x1 + x26x119x1 + x43x119x1 + x265x119x1 + x290x119x1 
- x119x0x1
- x119x204x1 
= 0



x100x16x1 + x203x16x1 + x138x16x1 + x94x16x1 + x216x16x1 
- x16x0x1

= 0




x118x291x2 + x100x291x2 + x14x291x2 + x4x291x2 + x239x291x2 + x5x291x2 + x26x291x2 + x31x291x2 + x170x291x2 + x216x291x2 + x265x291x2 + x10x291x2 
- x291x0x2
- x291x32x2 
= 0


x100x204x1 + x203x204x1 + x138x204x1 + x94x204x1 + x26x204x1 + x216x204x1 + x43x204x1 + x265x204x1 + x290x204x1 + x119x204x1 
- x204x0x1

= 0




x118x32x2 + x100x32x2 + x14x32x2 + x243x32x2 + x4x32x2 + x239x32x2 + x5x32x2 + x26x32x2 + x31x32x2 + x123x32x2 + x170x32x2 + x232x32x2 + x292x32x2 + x216x32x2 + x265x32x2 + x10x32x2 + x117x32x2 + x291x32x2 
- x32x0x2

= 0




x118x146x3 + x14x146x3 + x168x146x3 + x138x146x3 + x113x146x3 + x217x146x3 + x251x146x3 + x31x146x3 + x123x146x3 + x43x146x3 + x10x146x3 
- x146x0x3

= 0

2y5 - x118x5x2 - x100x5x2 - x14x5x2 - x4x5x2 - x239x5x2 = 0
1y26 - x100x26x1 - x203x26x1 - x138x26x1 - x94x26x1 = 0
1y26 - x118x26x2 - x100x26x2 - x14x26x2 - x4x26x2 - x239x26x2 = 0
1y31 - x118x31x2 - x100x31x2 - x4x31x2 - x239x31x2 = 0
1y31 - x118x31x3 - x168x31x3 - x251x31x3 = 0
1y123 - x100x123x2 - x4x123x2 - x239x123x2 = 0
1y123 - x251x123x3 = 0
2y170 - x118x170x2 - x100x170x2 - x4x170x2 - x239x170x2 = 0
2y221 - x100x221x1 - x203x221x1 - x138x221x1 - x94x221x1 = 0
2y232 - x100x232x2 - x4x232x2 - x239x232x2 = 0
2y292 - x100x292x2 - x4x292x2 - x239x292x2 = 0
1y216 - x100x216x1 - x203x216x1 - x138x216x1 - x94x216x1 = 0
1y216 - x118x216x2 - x100x216x2 - x14x216x2 - x4x216x2 - x239x216x2 = 0
1y43 - x100x43x1 - x203x43x1 - x138x43x1 - x94x43x1 - x26x43x1 = 0
1y43 - x118x43x3 - x14x43x3 - x168x43x3 - x138x43x3 - x251x43x3 = 0
1y265 - x100x265x1 - x203x265x1 - x138x265x1 - x94x265x1 - x26x265x1 = 0
1y265 - x118x265x2 - x100x265x2 - x14x265x2 - x4x265x2 - x239x265x2 - x26x265x2 = 0
1y10 - x118x10x2 - x100x10x2 - x14x10x2 - x4x10x2 - x239x10x2 - x26x10x2 - x265x10x2 = 0
1y10 - x118x10x3 - x14x10x3 - x168x10x3 - x138x10x3 - x251x10x3 = 0
2y290 - x100x290x1 - x203x290x1 - x138x290x1 - x94x290x1 - x26x290x1 - x43x290x1 - x265x290x1 = 0
1y117 - x118x117x2 - x100x117x2 - x14x117x2 - x4x117x2 - x239x117x2 - x5x117x2 - x26x117x2 - x31x117x2 - x170x117x2 - x265x117x2 - x10x117x2 = 0
1y117 - x118x117x3 - x14x117x3 - x168x117x3 - x138x117x3 - x251x117x3 - x31x117x3 - x43x117x3 - x10x117x3 = 0
2y119 - x100x119x1 - x203x119x1 - x138x119x1 - x94x119x1 - x26x119x1 - x43x119x1 - x265x119x1 - x290x119x1 = 0
2y16 - x100x16x1 - x203x16x1 - x138x16x1 - x94x16x1 - x216x16x1 = 0
2y291 - x118x291x2 - x100x291x2 - x14x291x2 - x4x291x2 - x239x291x2 - x5x291x2 - x26x291x2 - x31x291x2 - x170x291x2 - x216x291x2 - x265x291x2 - x10x291x2 = 0
2y204 - x100x204x1 - x203x204x1 - x138x204x1 - x94x204x1 - x26x204x1 - x216x204x1 - x43x204x1 - x265x204x1 - x290x204x1 - x119x204x1 = 0
2y32 - x118x32x2 - x100x32x2 - x14x32x2 - x243x32x2 - x4x32x2 - x239x32x2 - x5x32x2 - x26x32x2 - x31x32x2 - x123x32x2 - x170x32x2 - x232x32x2 - x292x32x2 - x216x32x2 - x265x32x2 - x10x32x2 - x117x32x2 - x291x32x2 = 0
2y146 - x118x146x3 - x14x146x3 - x168x146x3 - x138x146x3 - x113x146x3 - x217x146x3 - x251x146x3 - x31x146x3 - x123x146x3 - x43x146x3 - x10x146x3 = 0

s118 - s5 + 6.557348z118z5z2 <= 4.94
s118 - s26 + 6.684790z118z26z2 <= 4.94
s118 - s31 + 6.563249z118z31z2 <= 4.94
s118 - s31 + 6.563249z118z31z3 <= 4.94
s118 - s170 + 6.568460z118z170z2 <= 4.94
s118 - s216 + 6.535547z118z216z2 <= 4.94
s118 - s43 + 6.686575z118z43z3 <= 4.94
s118 - s265 + 6.668554z118z265z2 <= 4.94
s118 - s10 + 6.673714z118z10z2 <= 4.94
s118 - s10 + 6.673714z118z10z3 <= 4.94
s118 - s117 + 6.688119z118z117z2 <= 4.94
s118 - s117 + 6.688119z118z117z3 <= 4.94
s118 - s291 + 6.674621z118z291z2 <= 4.94
s118 - s32 + 6.726046z118z32z2 <= 4.94
s118 - s146 + 6.541293z118z146z3 <= 4.94
s100 - s5 + 6.393697z100z5z2 <= 5.03
s100 - s26 + 6.416306z100z26z1 <= 5.03
s100 - s26 + 6.416306z100z26z2 <= 5.03
s100 - s31 + 6.350961z100z31z2 <= 5.03
s100 - s123 + 6.278087z100z123z2 <= 5.03
s100 - s170 + 6.339844z100z170z2 <= 5.03
s100 - s221 + 6.331184z100z221z1 <= 5.03
s100 - s232 + 6.266555z100z232z2 <= 5.03
s100 - s292 + 6.255123z100z292z2 <= 5.03
s100 - s216 + 6.455075z100z216z1 <= 5.03
s100 - s216 + 6.455075z100z216z2 <= 5.03
s100 - s43 + 6.427798z100z43z1 <= 5.03
s100 - s265 + 6.457408z100z265z1 <= 5.03
s100 - s265 + 6.457408z100z265z2 <= 5.03
s100 - s10 + 6.454086z100z10z2 <= 5.03
s100 - s290 + 6.451106z100z290z1 <= 5.03
s100 - s117 + 6.465856z100z117z2 <= 5.03
s100 - s119 + 6.446039z100z119z1 <= 5.03
s100 - s16 + 6.516566z100z16z1 <= 5.03
s100 - s291 + 6.481937z100z291z2 <= 5.03
s100 - s204 + 6.474790z100z204z1 <= 5.03
s100 - s32 + 6.479190z100z32z2 <= 5.03
s203 - s26 + 6.488067z203z26z1 <= 5.11
s203 - s221 + 6.341053z203z221z1 <= 5.11
s203 - s216 + 6.479831z203z216z1 <= 5.11
s203 - s43 + 6.497494z203z43z1 <= 5.11
s203 - s265 + 6.515536z203z265z1 <= 5.11
s203 - s290 + 6.516999z203z290z1 <= 5.11
s203 - s119 + 6.516349z203z119z1 <= 5.11
s203 - s16 + 6.551871z203z16z1 <= 5.11
s203 - s204 + 6.537271z203z204z1 <= 5.11
s14 - s5 + 6.686898z14z5z2 <= 5.32
s14 - s26 + 6.804573z14z26z2 <= 5.32
s14 - s216 + 6.685431z14z216z2 <= 5.32
s14 - s43 + 6.808065z14z43z3 <= 5.32
s14 - s265 + 6.798120z14z265z2 <= 5.32
s14 - s10 + 6.801845z14z10z2 <= 5.32
s14 - s10 + 6.801845z14z10z3 <= 5.32
s14 - s117 + 6.816689z14z117z2 <= 5.32
s14 - s117 + 6.816689z14z117z3 <= 5.32
s14 - s291 + 6.808843z14z291z2 <= 5.32
s14 - s32 + 6.851917z14z32z2 <= 5.32
s14 - s146 + 6.724775z14z146z3 <= 5.32
s168 - s31 + 6.595881z168z31z3 <= 5.24
s168 - s43 + 6.716052z168z43z3 <= 5.24
s168 - s10 + 6.699583z168z10z3 <= 5.24
s168 - s117 + 6.713701z168z117z3 <= 5.24
s168 - s146 + 6.571672z168z146z3 <= 5.24
s138 - s26 + 6.791037z138z26z1 <= 5.51
s138 - s221 + 6.543076z138z221z1 <= 5.51
s138 - s216 + 6.683180z138z216z1 <= 5.51
s138 - s43 + 6.793531z138z43z1 <= 5.51
s138 - s43 + 6.793531z138z43z3 <= 5.51
s138 - s265 + 6.782049z138z265z1 <= 5.51
s138 - s10 + 6.785743z138z10z3 <= 5.51
s138 - s290 + 6.800281z138z290z1 <= 5.51
s138 - s117 + 6.800584z138z117z3 <= 5.51
s138 - s119 + 6.809536z138z119z1 <= 5.51
s138 - s16 + 6.766833z138z16z1 <= 5.51
s138 - s204 + 6.809242z138z204z1 <= 5.51
s138 - s146 + 6.751761z138z146z3 <= 5.51
s243 - s32 + 7.319342z243z32z2 <= 5.99
s113 - s146 + 7.340935z113z146z3 <= 5.96
s217 - s146 + 7.347483z217z146z3 <= 5.97
s4 - s5 + 6.230609z4z5z2 <= 4.62
s4 - s26 + 6.352947z4z26z2 <= 4.62
s4 - s31 + 6.231450z4z31z2 <= 4.62
s4 - s123 + 6.245074z4z123z2 <= 4.62
s4 - s170 + 6.235202z4z170z2 <= 4.62
s4 - s232 + 6.231304z4z232z2 <= 4.62
s4 - s292 + 6.256794z4z292z2 <= 4.62
s4 - s216 + 6.216990z4z216z2 <= 4.62
s4 - s265 + 6.342362z4z265z2 <= 4.62
s4 - s10 + 6.346799z4z10z2 <= 4.62
s4 - s117 + 6.361486z4z117z2 <= 4.62
s4 - s291 + 6.350720z4z291z2 <= 4.62
s4 - s32 + 6.398060z4z32z2 <= 4.62
s239 - s5 + 6.200281z239z5z2 <= 4.74
s239 - s26 + 6.309175z239z26z2 <= 4.74
s239 - s31 + 6.190729z239z31z2 <= 4.74
s239 - s123 + 6.188420z239z123z2 <= 4.74
s239 - s170 + 6.191561z239z170z2 <= 4.74
s239 - s232 + 6.173955z239z232z2 <= 4.74
s239 - s292 + 6.195409z239z292z2 <= 4.74
s239 - s216 + 6.205815z239z216z2 <= 4.74
s239 - s265 + 6.309757z239z265z2 <= 4.74
s239 - s10 + 6.312622z239z10z2 <= 4.74
s239 - s117 + 6.327529z239z117z2 <= 4.74
s239 - s291 + 6.322653z239z291z2 <= 4.74
s239 - s32 + 6.360667z239z32z2 <= 4.74
s251 - s31 + 6.238295z251z31z3 <= 4.85
s251 - s123 + 6.171659z251z123z3 <= 4.85
s251 - s43 + 6.322885z251z43z3 <= 4.85
s251 - s10 + 6.347009z251z10z3 <= 4.85
s251 - s117 + 6.359316z251z117z3 <= 4.85
s251 - s146 + 6.421618z251z146z3 <= 4.85
s94 - s26 + 6.322880z94z26z1 <= 4.86
s94 - s221 + 6.218600z94z221z1 <= 4.86
s94 - s216 + 6.350761z94z216z1 <= 4.86
s94 - s43 + 6.334229z94z43z1 <= 4.86
s94 - s265 + 6.362496z94z265z1 <= 4.86
s94 - s290 + 6.357221z94z290z1 <= 4.86
s94 - s119 + 6.352564z94z119z1 <= 4.86
s94 - s16 + 6.416453z94z16z1 <= 4.86
s94 - s204 + 6.380562z94z204z1 <= 4.86
s5 - s117 + 7.890979z5z117z2 <= 6.76
s5 - s291 + 7.882384z5z291z2 <= 6.76
s5 - s32 + 7.928787z5z32z2 <= 6.76
s26 - s43 + 8.013333z26z43z1 <= 7.00
s26 - s265 + 8.065659z26z265z1 <= 7.00
s26 - s265 + 8.065659z26z265z2 <= 7.00
s26 - s10 + 8.056960z26z10z2 <= 7.00
s26 - s290 + 8.040000z26z290z1 <= 7.00
s26 - s117 + 8.060369z26z117z2 <= 7.00
s26 - s119 + 8.029814z26z119z1 <= 7.00
s26 - s291 + 8.090676z26z291z2 <= 7.00
s26 - s204 + 8.066667z26z204z1 <= 7.00
s26 - s32 + 8.062893z26z32z2 <= 7.00
s31 - s117 + 7.748724z31z117z2 <= 6.61
s31 - s117 + 7.748724z31z117z3 <= 6.61
s31 - s291 + 7.751736z31z291z2 <= 6.61
s31 - s32 + 7.779967z31z32z2 <= 6.61
s31 - s146 + 7.834103z31z146z3 <= 6.61
s123 - s32 + 7.564070z123z32z2 <= 6.36
s123 - s146 + 7.674466z123z146z3 <= 6.36
s170 - s117 + 7.711736z170z117z2 <= 6.57
s170 - s291 + 7.718024z170z291z2 <= 6.57
s170 - s32 + 7.740359z170z32z2 <= 6.57
s232 - s32 + 7.537664z232z32z2 <= 6.32
s292 - s32 + 7.494103z292z32z2 <= 6.27
s216 - s16 + 8.095375z216z16z1 <= 7.01
s216 - s291 + 8.156818z216z291z2 <= 7.01
s216 - s204 + 8.185373z216z204z1 <= 7.01
s216 - s32 + 8.220502z216z32z2 <= 7.01
s43 - s290 + 8.066667z43z290z1 <= 7.04
s43 - s117 + 8.087140z43z117z3 <= 7.04
s43 - s119 + 8.058856z43z119z1 <= 7.04
s43 - s204 + 8.093333z43z204z1 <= 7.04
s43 - s146 + 8.309732z43z146z3 <= 7.04
s265 - s10 + 8.079429z265z10z2 <= 7.07
s265 - s290 + 8.103333z265z290z1 <= 7.07
s265 - s117 + 8.090000z265z117z2 <= 7.07
s265 - s119 + 8.122068z265z119z1 <= 7.07
s265 - s291 + 8.096666z265z291z2 <= 7.07
s265 - s204 + 8.097487z265z204z1 <= 7.07
s265 - s32 + 8.130369z265z32z2 <= 7.07
s10 - s117 + 8.094907z10z117z2 <= 7.08
s10 - s117 + 8.094907z10z117z3 <= 7.08
s10 - s291 + 8.113994z10z291z2 <= 7.08
s10 - s32 + 8.133333z10z32z2 <= 7.08
s10 - s146 + 8.309395z10z146z3 <= 7.08
s290 - s119 + 8.138856z290z119z1 <= 7.12
s290 - s204 + 8.146667z290z204z1 <= 7.12
s117 - s32 + 8.190552z117z32z2 <= 7.15
s119 - s204 + 8.192163z119z204z1 <= 7.15
s291 - s32 + 8.228638z291z32z2 <= 7.16

x118x5x2 - 2z118z5z2 <= 0
x118x26x2 - 1z118z26z2 <= 0
x118x31x2 - 1z118z31z2 <= 0
x118x31x3 - 1z118z31z3 <= 0
x118x170x2 - 2z118z170z2 <= 0
x118x216x2 - 1z118z216z2 <= 0
x118x43x3 - 1z118z43z3 <= 0
x118x265x2 - 1z118z265z2 <= 0
x118x10x2 - 1z118z10z2 <= 0
x118x10x3 - 1z118z10z3 <= 0
x118x117x2 - 1z118z117z2 <= 0
x118x117x3 - 1z118z117z3 <= 0
x118x291x2 - 2z118z291z2 <= 0
x118x32x2 - 2z118z32z2 <= 0
x118x146x3 - 2z118z146z3 <= 0
x100x5x2 - 2z100z5z2 <= 0
x100x26x1 - 1z100z26z1 <= 0
x100x26x2 - 1z100z26z2 <= 0
x100x31x2 - 1z100z31z2 <= 0
x100x123x2 - 1z100z123z2 <= 0
x100x170x2 - 2z100z170z2 <= 0
x100x221x1 - 2z100z221z1 <= 0
x100x232x2 - 2z100z232z2 <= 0
x100x292x2 - 2z100z292z2 <= 0
x100x216x1 - 1z100z216z1 <= 0
x100x216x2 - 1z100z216z2 <= 0
x100x43x1 - 1z100z43z1 <= 0
x100x265x1 - 1z100z265z1 <= 0
x100x265x2 - 1z100z265z2 <= 0
x100x10x2 - 1z100z10z2 <= 0
x100x290x1 - 2z100z290z1 <= 0
x100x117x2 - 1z100z117z2 <= 0
x100x119x1 - 2z100z119z1 <= 0
x100x16x1 - 2z100z16z1 <= 0
x100x291x2 - 2z100z291z2 <= 0
x100x204x1 - 2z100z204z1 <= 0
x100x32x2 - 2z100z32z2 <= 0
x203x26x1 - 1z203z26z1 <= 0
x203x221x1 - 2z203z221z1 <= 0
x203x216x1 - 1z203z216z1 <= 0
x203x43x1 - 1z203z43z1 <= 0
x203x265x1 - 1z203z265z1 <= 0
x203x290x1 - 2z203z290z1 <= 0
x203x119x1 - 2z203z119z1 <= 0
x203x16x1 - 2z203z16z1 <= 0
x203x204x1 - 2z203z204z1 <= 0
x14x5x2 - 2z14z5z2 <= 0
x14x26x2 - 1z14z26z2 <= 0
x14x216x2 - 1z14z216z2 <= 0
x14x43x3 - 1z14z43z3 <= 0
x14x265x2 - 1z14z265z2 <= 0
x14x10x2 - 1z14z10z2 <= 0
x14x10x3 - 1z14z10z3 <= 0
x14x117x2 - 1z14z117z2 <= 0
x14x117x3 - 1z14z117z3 <= 0
x14x291x2 - 2z14z291z2 <= 0
x14x32x2 - 2z14z32z2 <= 0
x14x146x3 - 2z14z146z3 <= 0
x168x31x3 - 1z168z31z3 <= 0
x168x43x3 - 1z168z43z3 <= 0
x168x10x3 - 1z168z10z3 <= 0
x168x117x3 - 1z168z117z3 <= 0
x168x146x3 - 2z168z146z3 <= 0
x138x26x1 - 1z138z26z1 <= 0
x138x221x1 - 2z138z221z1 <= 0
x138x216x1 - 1z138z216z1 <= 0
x138x43x1 - 1z138z43z1 <= 0
x138x43x3 - 1z138z43z3 <= 0
x138x265x1 - 1z138z265z1 <= 0
x138x10x3 - 1z138z10z3 <= 0
x138x290x1 - 2z138z290z1 <= 0
x138x117x3 - 1z138z117z3 <= 0
x138x119x1 - 2z138z119z1 <= 0
x138x16x1 - 2z138z16z1 <= 0
x138x204x1 - 2z138z204z1 <= 0
x138x146x3 - 2z138z146z3 <= 0
x243x32x2 - 2z243z32z2 <= 0
x113x146x3 - 2z113z146z3 <= 0
x217x146x3 - 2z217z146z3 <= 0
x4x5x2 - 2z4z5z2 <= 0
x4x26x2 - 1z4z26z2 <= 0
x4x31x2 - 1z4z31z2 <= 0
x4x123x2 - 1z4z123z2 <= 0
x4x170x2 - 2z4z170z2 <= 0
x4x232x2 - 2z4z232z2 <= 0
x4x292x2 - 2z4z292z2 <= 0
x4x216x2 - 1z4z216z2 <= 0
x4x265x2 - 1z4z265z2 <= 0
x4x10x2 - 1z4z10z2 <= 0
x4x117x2 - 1z4z117z2 <= 0
x4x291x2 - 2z4z291z2 <= 0
x4x32x2 - 2z4z32z2 <= 0
x239x5x2 - 2z239z5z2 <= 0
x239x26x2 - 1z239z26z2 <= 0
x239x31x2 - 1z239z31z2 <= 0
x239x123x2 - 1z239z123z2 <= 0
x239x170x2 - 2z239z170z2 <= 0
x239x232x2 - 2z239z232z2 <= 0
x239x292x2 - 2z239z292z2 <= 0
x239x216x2 - 1z239z216z2 <= 0
x239x265x2 - 1z239z265z2 <= 0
x239x10x2 - 1z239z10z2 <= 0
x239x117x2 - 1z239z117z2 <= 0
x239x291x2 - 2z239z291z2 <= 0
x239x32x2 - 2z239z32z2 <= 0
x251x31x3 - 1z251z31z3 <= 0
x251x123x3 - 1z251z123z3 <= 0
x251x43x3 - 1z251z43z3 <= 0
x251x10x3 - 1z251z10z3 <= 0
x251x117x3 - 1z251z117z3 <= 0
x251x146x3 - 2z251z146z3 <= 0
x94x26x1 - 1z94z26z1 <= 0
x94x221x1 - 2z94z221z1 <= 0
x94x216x1 - 1z94z216z1 <= 0
x94x43x1 - 1z94z43z1 <= 0
x94x265x1 - 1z94z265z1 <= 0
x94x290x1 - 2z94z290z1 <= 0
x94x119x1 - 2z94z119z1 <= 0
x94x16x1 - 2z94z16z1 <= 0
x94x204x1 - 2z94z204z1 <= 0
x5x117x2 - 1z5z117z2 <= 0
x5x291x2 - 2z5z291z2 <= 0
x5x32x2 - 2z5z32z2 <= 0
x5x0x2 <= 2
x26x43x1 - 1z26z43z1 <= 0
x26x265x1 - 1z26z265z1 <= 0
x26x265x2 - 1z26z265z2 <= 0
x26x10x2 - 1z26z10z2 <= 0
x26x290x1 - 2z26z290z1 <= 0
x26x117x2 - 1z26z117z2 <= 0
x26x119x1 - 2z26z119z1 <= 0
x26x291x2 - 2z26z291z2 <= 0
x26x204x1 - 2z26z204z1 <= 0
x26x32x2 - 2z26z32z2 <= 0
x26x0x1 <= 1
x26x0x2 <= 1
x31x117x2 - 1z31z117z2 <= 0
x31x117x3 - 1z31z117z3 <= 0
x31x291x2 - 2z31z291z2 <= 0
x31x32x2 - 2z31z32z2 <= 0
x31x146x3 - 2z31z146z3 <= 0
x31x0x2 <= 1
x31x0x3 <= 1
x123x32x2 - 2z123z32z2 <= 0
x123x146x3 - 2z123z146z3 <= 0
x123x0x2 <= 1
x123x0x3 <= 1
x170x117x2 - 1z170z117z2 <= 0
x170x291x2 - 2z170z291z2 <= 0
x170x32x2 - 2z170z32z2 <= 0
x170x0x2 <= 2
x221x0x1 <= 2
x232x32x2 - 2z232z32z2 <= 0
x232x0x2 <= 2
x292x32x2 - 2z292z32z2 <= 0
x292x0x2 <= 2
x216x16x1 - 2z216z16z1 <= 0
x216x291x2 - 2z216z291z2 <= 0
x216x204x1 - 2z216z204z1 <= 0
x216x32x2 - 2z216z32z2 <= 0
x216x0x1 <= 1
x216x0x2 <= 1
x43x290x1 - 2z43z290z1 <= 0
x43x117x3 - 1z43z117z3 <= 0
x43x119x1 - 2z43z119z1 <= 0
x43x204x1 - 2z43z204z1 <= 0
x43x146x3 - 2z43z146z3 <= 0
x43x0x1 <= 1
x43x0x3 <= 1
x265x10x2 - 1z265z10z2 <= 0
x265x290x1 - 2z265z290z1 <= 0
x265x117x2 - 1z265z117z2 <= 0
x265x119x1 - 2z265z119z1 <= 0
x265x291x2 - 2z265z291z2 <= 0
x265x204x1 - 2z265z204z1 <= 0
x265x32x2 - 2z265z32z2 <= 0
x265x0x1 <= 1
x265x0x2 <= 1
x10x117x2 - 1z10z117z2 <= 0
x10x117x3 - 1z10z117z3 <= 0
x10x291x2 - 2z10z291z2 <= 0
x10x32x2 - 2z10z32z2 <= 0
x10x146x3 - 2z10z146z3 <= 0
x10x0x2 <= 1
x10x0x3 <= 1
x290x119x1 - 2z290z119z1 <= 0
x290x204x1 - 2z290z204z1 <= 0
x290x0x1 <= 2
x117x32x2 - 2z117z32z2 <= 0
x117x0x2 <= 1
x117x0x3 <= 1
x119x204x1 - 2z119z204z1 <= 0
x119x0x1 <= 2
x16x0x1 <= 2
x291x32x2 - 2z291z32z2 <= 0
x291x0x2 <= 2
x204x0x1 <= 2
x32x0x2 <= 2
x146x0x3 <= 2

Bounds
s118 = 4.938927
s100 = 5.027576
s203 = 5.106200
s14 = 5.322725
s168 = 5.242296
s138 = 5.507175
s128 = 5.838830
s243 = 5.985742
s113 = 5.960000
s217 = 5.973912
s4 = 4.623320
s239 = 4.737200
s251 = 4.845810
s94 = 4.858600
6.000000 <= s5 <= 6.760000
6.000000 <= s26 <= 7.000000
6.000000 <= s31 <= 6.610000
6.000000 <= s123 <= 6.360000
6.000000 <= s170 <= 6.570000
6.000000 <= s221 <= 6.800000
6.000000 <= s232 <= 6.320000
6.000000 <= s292 <= 6.270000
6.010000 <= s216 <= 7.010000
6.040000 <= s43 <= 7.040000
6.070000 <= s265 <= 7.070000
6.080000 <= s10 <= 7.080000
6.120000 <= s290 <= 7.120000
6.150000 <= s117 <= 7.150000
6.150000 <= s119 <= 7.150000
6.160000 <= s16 <= 7.160000
6.160000 <= s291 <= 7.160000
6.210000 <= s204 <= 7.210000
6.340000 <= s32 <= 7.340000
6.370000 <= s146 <= 7.370000

General
x118x5x2 x118x26x2 x118x31x2 x118x31x3 x118x170x2 x118x216x2 x118x43x3 x118x265x2 x118x10x2 x118x10x3 x118x117x2 x118x117x3 x118x291x2 x118x32x2 x118x146x3 
x100x5x2 x100x26x1 x100x26x2 x100x31x2 x100x123x2 x100x170x2 x100x221x1 x100x232x2 x100x292x2 x100x216x1 x100x216x2 x100x43x1 x100x265x1 x100x265x2 x100x10x2 x100x290x1 x100x117x2 x100x119x1 x100x16x1 x100x291x2 x100x204x1 x100x32x2 
x203x26x1 x203x221x1 x203x216x1 x203x43x1 x203x265x1 x203x290x1 x203x119x1 x203x16x1 x203x204x1 
x14x5x2 x14x26x2 x14x216x2 x14x43x3 x14x265x2 x14x10x2 x14x10x3 x14x117x2 x14x117x3 x14x291x2 x14x32x2 x14x146x3 
x168x31x3 x168x43x3 x168x10x3 x168x117x3 x168x146x3 
x138x26x1 x138x221x1 x138x216x1 x138x43x1 x138x43x3 x138x265x1 x138x10x3 x138x290x1 x138x117x3 x138x119x1 x138x16x1 x138x204x1 x138x146x3 

x243x32x2 
x113x146x3 
x217x146x3 
x4x5x2 x4x26x2 x4x31x2 x4x123x2 x4x170x2 x4x232x2 x4x292x2 x4x216x2 x4x265x2 x4x10x2 x4x117x2 x4x291x2 x4x32x2 
x239x5x2 x239x26x2 x239x31x2 x239x123x2 x239x170x2 x239x232x2 x239x292x2 x239x216x2 x239x265x2 x239x10x2 x239x117x2 x239x291x2 x239x32x2 
x251x31x3 x251x123x3 x251x43x3 x251x10x3 x251x117x3 x251x146x3 
x94x26x1 x94x221x1 x94x216x1 x94x43x1 x94x265x1 x94x290x1 x94x119x1 x94x16x1 x94x204x1 
x5x117x2 x5x291x2 x5x32x2 x5x0x2 
x26x43x1 x26x265x1 x26x265x2 x26x10x2 x26x290x1 x26x117x2 x26x119x1 x26x291x2 x26x204x1 x26x32x2 x26x0x1 x26x0x2 
x31x117x2 x31x117x3 x31x291x2 x31x32x2 x31x146x3 x31x0x2 x31x0x3 
x123x32x2 x123x146x3 x123x0x2 x123x0x3 
x170x117x2 x170x291x2 x170x32x2 x170x0x2 
x221x0x1 
x232x32x2 x232x0x2 
x292x32x2 x292x0x2 
x216x16x1 x216x291x2 x216x204x1 x216x32x2 x216x0x1 x216x0x2 
x43x290x1 x43x117x3 x43x119x1 x43x204x1 x43x146x3 x43x0x1 x43x0x3 
x265x10x2 x265x290x1 x265x117x2 x265x119x1 x265x291x2 x265x204x1 x265x32x2 x265x0x1 x265x0x2 
x10x117x2 x10x117x3 x10x291x2 x10x32x2 x10x146x3 x10x0x2 x10x0x3 
x290x119x1 x290x204x1 x290x0x1 
x117x32x2 x117x0x2 x117x0x3 
x119x204x1 x119x0x1 
x16x0x1 
x291x32x2 x291x0x2 
x204x0x1 
x32x0x2 
x146x0x3 

Binaries
y5 y26 y31 y123 y170 y221 y232 y292 y216 y43 y265 y10 y290 y117 y119 y16 y291 y204 y32 y146 
z118z5z2 z118z26z2 z118z31z2 z118z31z3 z118z170z2 z118z216z2 z118z43z3 z118z265z2 z118z10z2 z118z10z3 z118z117z2 z118z117z3 z118z291z2 z118z32z2 z118z146z3 
z100z5z2 z100z26z1 z100z26z2 z100z31z2 z100z123z2 z100z170z2 z100z221z1 z100z232z2 z100z292z2 z100z216z1 z100z216z2 z100z43z1 z100z265z1 z100z265z2 z100z10z2 z100z290z1 z100z117z2 z100z119z1 z100z16z1 z100z291z2 z100z204z1 z100z32z2 
z203z26z1 z203z221z1 z203z216z1 z203z43z1 z203z265z1 z203z290z1 z203z119z1 z203z16z1 z203z204z1 
z14z5z2 z14z26z2 z14z216z2 z14z43z3 z14z265z2 z14z10z2 z14z10z3 z14z117z2 z14z117z3 z14z291z2 z14z32z2 z14z146z3 
z168z31z3 z168z43z3 z168z10z3 z168z117z3 z168z146z3 
z138z26z1 z138z221z1 z138z216z1 z138z43z1 z138z43z3 z138z265z1 z138z10z3 z138z290z1 z138z117z3 z138z119z1 z138z16z1 z138z204z1 z138z146z3 

z243z32z2 
z113z146z3 
z217z146z3 
z4z5z2 z4z26z2 z4z31z2 z4z123z2 z4z170z2 z4z232z2 z4z292z2 z4z216z2 z4z265z2 z4z10z2 z4z117z2 z4z291z2 z4z32z2 
z239z5z2 z239z26z2 z239z31z2 z239z123z2 z239z170z2 z239z232z2 z239z292z2 z239z216z2 z239z265z2 z239z10z2 z239z117z2 z239z291z2 z239z32z2 
z251z31z3 z251z123z3 z251z43z3 z251z10z3 z251z117z3 z251z146z3 
z94z26z1 z94z221z1 z94z216z1 z94z43z1 z94z265z1 z94z290z1 z94z119z1 z94z16z1 z94z204z1 
z5z117z2 z5z291z2 z5z32z2 
z26z43z1 z26z265z1 z26z265z2 z26z10z2 z26z290z1 z26z117z2 z26z119z1 z26z291z2 z26z204z1 z26z32z2 
z31z117z2 z31z117z3 z31z291z2 z31z32z2 z31z146z3 
z123z32z2 z123z146z3 
z170z117z2 z170z291z2 z170z32z2 

z232z32z2 
z292z32z2 
z216z16z1 z216z291z2 z216z204z1 z216z32z2 
z43z290z1 z43z117z3 z43z119z1 z43z204z1 z43z146z3 
z265z10z2 z265z290z1 z265z117z2 z265z119z1 z265z291z2 z265z204z1 z265z32z2 
z10z117z2 z10z117z3 z10z291z2 z10z32z2 z10z146z3 
z290z119z1 z290z204z1 
z117z32z2 
z119z204z1 

z291z32z2 




End